49625.87,55.71,67.56
48849.07,56.59,68.63
43172.63,64.04,77.66
43795.52,63.12,76.55
47830.53,57.8,70.09
50221.24,55.05,66.76
50777.42,54.45,66.03
53763.75,51.42,62.36
47885.32,57.73,70.01
45433.39,60.85,73.79
46214.69,59.82,72.54
48587.54,56.9,69.0
40392.59,68.44,83.0
53939.29,51.25,62.16
52055.11,53.11,64.41
45797.21,60.37,73.21
46636.23,59.28,71.89
43302.38,63.84,77.42
49347.82,56.02,67.94
42410.16,65.19,79.05
